
Gurobi 7.5.2 (linux64, Matlab) logging started mié 22 ago 2018 20:30:32 PDT


Gurobi 7.5.2 (linux64, Matlab) logging started mié 22 ago 2018 20:30:32 PDT


Gurobi 7.5.2 (linux64, Matlab) logging started mié 22 ago 2018 20:30:56 PDT


Gurobi 7.5.2 (linux64, Matlab) logging started mié 22 ago 2018 20:30:56 PDT


Gurobi 7.5.2 (linux64, Matlab) logging started mié 22 ago 2018 20:33:19 PDT


Gurobi 7.5.2 (linux64, Matlab) logging started mié 22 ago 2018 20:33:19 PDT


Gurobi 7.5.2 (linux64, Matlab) logging started mié 22 ago 2018 20:33:30 PDT


Gurobi 7.5.2 (linux64, Matlab) logging started mié 22 ago 2018 20:33:30 PDT


Gurobi 7.5.2 (linux64, Matlab) logging started Tue Sep  4 13:30:22 2018


Gurobi 7.5.2 (linux64) logging started Tue Sep  4 13:30:22 2018


Gurobi 7.5.2 (linux64, Matlab) logging started Tue Sep  4 13:30:22 2018


Gurobi 7.5.2 (linux64) logging started Tue Sep  4 13:30:22 2018

